RT is False
Default write of storage_offers_DA.csv just to have a file (but constraint should be inactive)
Reading model...
...model read.
creating competitive generators file...
...competitive generators recorded.
Loading data...
.. day-ahead data with real-time VRE data read.
Compiling instance...
...instance created.
Creating Offer Mitigation (model will solve as dispatch if TRUE)...
NOTE: storage offers will not be mitigated
...storage offer mitigation file created
Converting model to MPEC...
...converted
NOTE: initial MIP solve with only storage competitive to get feasible solution
Solving...

Welcome to IBM(R) ILOG(R) CPLEX(R) Interactive Optimizer 12.8.0.0
  with Simplex, Mixed Integer & Barrier Optimizers
5725-A06 5725-A29 5724-Y48 5724-Y49 5724-Y54 5724-Y55 5655-Y21
Copyright IBM Corp. 1988, 2017.  All Rights Reserved.

Type 'help' for a list of available commands.
Type 'help' followed by a command name for more
information on commands.

CPLEX> Logfile 'cplex.log' closed.
Logfile 'C:\Users\llavi\Desktop\test919\logs\tmpjkeqjxtf.cplex.log' open.
CPLEX> New value for parallel optimization mode: -1
CPLEX> New value for mixed integer optimality gap tolerance: 0.01
CPLEX> New value for integrality tolerance: 1e-09
CPLEX> New value for feasibility tolerance: 0.01
CPLEX> New value for deterministic time limit in ticks: 75000
CPLEX> Problem 'C:\Users\llavi\Desktop\test919\logs\tmp2u_32u8q.pyomo.lp' read.
Read time = 0.33 sec. (13.50 ticks)
CPLEX> Problem name         : C:\Users\llavi\Desktop\test919\logs\tmp2u_32u8q.pyomo.lp
Objective sense      : Maximize
Variables            :   54021  [Nneg: 1,  Box: 22008,  Free: 4464,
                                 Binary: 27548]
Objective nonzeros   :    8984
Linear constraints   :  123829  [Less: 41554,  Greater: 59512,  Equal: 22763]
  Nonzeros           :  300597
  RHS nonzeros       :   67905

Variables            : Min LB: -5000.000        Max UB: 1000000.       
Objective nonzeros   : Min   : 0.04166667       Max   : 834.6000       
Linear constraints   :
  Nonzeros           : Min   : 0.001000000      Max   : 1000000.       
  RHS nonzeros       : Min   : 0.04166667       Max   : 1000000.       
CPLEX> CPXPARAM_Simplex_Tolerances_Feasibility          0.01
CPXPARAM_Parallel                                -1
CPXPARAM_DetTimeLimit                            75000
CPXPARAM_MIP_Tolerances_MIPGap                   0.01
CPXPARAM_MIP_Tolerances_Integrality              1.0000000000000001e-09
Tried aggregator 3 times.
MIP Presolve eliminated 89223 rows and 19119 columns.
MIP Presolve added 3405 rows and 0 columns.
MIP Presolve modified 23911 coefficients.
Aggregator did 13063 substitutions.
Reduced MIP has 24948 rows, 21287 columns, and 71208 nonzeros.
Reduced MIP has 8427 binaries, 0 generals, 0 SOSs, and 0 indicators.
Presolve time = 0.28 sec. (167.19 ticks)
Probing fixed 392 vars, tightened 2861 bounds.
Probing time = 3.06 sec. (883.73 ticks)
Tried aggregator 2 times.
MIP Presolve eliminated 885 rows and 785 columns.
MIP Presolve modified 2194 coefficients.
Aggregator did 43 substitutions.
Reduced MIP has 24020 rows, 20459 columns, and 68519 nonzeros.
Reduced MIP has 8035 binaries, 0 generals, 0 SOSs, and 0 indicators.
Presolve time = 0.11 sec. (56.16 ticks)
Probing time = 0.05 sec. (15.32 ticks)
Clique table members: 6380.
MIP emphasis: balance optimality and feasibility.
MIP search method: dynamic search.
Parallel mode: opportunistic, using up to 4 threads.
Root relaxation solution time = 0.42 sec. (477.23 ticks)

        Nodes                                         Cuts/
   Node  Left     Objective  IInf  Best Integer    Best Bound    ItCnt     Gap

      0     0     3353.0997   692                   3353.0997     3029         
      0     0     3353.1055     9                    Cuts: 10     3034         
      0     0     3353.1055     7                     Cuts: 6     3038         
      0     0     3353.1055     6                 Flowcuts: 1     3040         
*     0+    0                         3351.3977     3353.0997             0.05%

Flow cuts applied:  3
Gomory fractional cuts applied:  3

Root node processing (before b&c):
  Real time             =   12.66 sec. (4658.60 ticks)
Parallel b&c, 4 threads:
  Real time             =    0.00 sec. (0.00 ticks)
  Sync time (average)   =    0.00 sec.
  Wait time (average)   =    0.00 sec.
                          ------------
Total (root+branch&cut) =   12.66 sec. (4658.60 ticks)

Solution pool: 1 solution saved.

MIP - Integer optimal, tolerance (0.01/1e-06):  Objective =  3.3513977156e+03
Current MIP best bound =  3.3525695341e+03 (gap = 1.17182, 0.03%)
Solution time =   12.66 sec.  Iterations = 3040  Nodes = 0 (1)
Deterministic time = 4658.75 ticks  (368.11 ticks/sec)

CPLEX> Incumbent solution written to file 'C:\Users\llavi\Desktop\test919\logs\tmpwa3e2_uq.cplex.sol'.
CPLEX> NOTE: no warmstart specified for MIP iteration, default behavior is true
NOTE: resolving with all competitive generators using storage-only solution to warmstart
Solving...

Welcome to IBM(R) ILOG(R) CPLEX(R) Interactive Optimizer 12.8.0.0
  with Simplex, Mixed Integer & Barrier Optimizers
5725-A06 5725-A29 5724-Y48 5724-Y49 5724-Y54 5724-Y55 5655-Y21
Copyright IBM Corp. 1988, 2017.  All Rights Reserved.

Type 'help' for a list of available commands.
Type 'help' followed by a command name for more
information on commands.

CPLEX> Logfile 'cplex.log' closed.
Logfile 'C:\Users\llavi\Desktop\test919\logs\tmpwc_x_4ja.cplex.log' open.
CPLEX> New value for parallel optimization mode: -1
CPLEX> New value for mixed integer optimality gap tolerance: 0.01
CPLEX> New value for integrality tolerance: 1e-09
CPLEX> New value for feasibility tolerance: 0.01
CPLEX> New value for deterministic time limit in ticks: 75000
CPLEX> Problem 'C:\Users\llavi\Desktop\test919\logs\tmp6_mfwsp_.pyomo.lp' read.
Read time = 0.27 sec. (13.52 ticks)
CPLEX> MIP start file 'C:\Users\llavi\Desktop\test919\logs\tmp87yzi5t3.cplex.mst' read.
CPLEX> Problem name         : C:\Users\llavi\Desktop\test919\logs\tmp6_mfwsp_.pyomo.lp
Objective sense      : Maximize
Variables            :   54741  [Nneg: 1,  Box: 22728,  Free: 4464,
                                 Binary: 27548]
Objective nonzeros   :    9704
Linear constraints   :  123829  [Less: 41554,  Greater: 59512,  Equal: 22763]
  Nonzeros           :  300597
  RHS nonzeros       :   67905

Variables            : Min LB: -5000.000        Max UB: 1000000.       
Objective nonzeros   : Min   : 0.04166667       Max   : 834.6000       
Linear constraints   :
  Nonzeros           : Min   : 0.001000000      Max   : 1000000.       
  RHS nonzeros       : Min   : 0.04166667       Max   : 1000000.       
CPLEX> CPXPARAM_Simplex_Tolerances_Feasibility          0.01
CPXPARAM_Parallel                                -1
CPXPARAM_DetTimeLimit                            75000
CPXPARAM_MIP_Tolerances_MIPGap                   0.01
CPXPARAM_MIP_Tolerances_Integrality              1.0000000000000001e-09
Warning:  No solution found from 1 MIP starts.
Retaining values of one MIP start for possible repair.
Tried aggregator 3 times.
MIP Presolve eliminated 89223 rows and 19839 columns.
MIP Presolve added 3405 rows and 0 columns.
MIP Presolve modified 23911 coefficients.
Aggregator did 13063 substitutions.
Reduced MIP has 24948 rows, 21287 columns, and 71208 nonzeros.
Reduced MIP has 8427 binaries, 0 generals, 0 SOSs, and 0 indicators.
Presolve time = 0.27 sec. (167.55 ticks)
Probing fixed 392 vars, tightened 2861 bounds.
Probing time = 3.05 sec. (883.73 ticks)
Tried aggregator 2 times.
MIP Presolve eliminated 885 rows and 785 columns.
MIP Presolve modified 2194 coefficients.
Aggregator did 43 substitutions.
Reduced MIP has 24020 rows, 20459 columns, and 68519 nonzeros.
Reduced MIP has 8035 binaries, 0 generals, 0 SOSs, and 0 indicators.
Presolve time = 0.14 sec. (56.13 ticks)
Probing time = 0.05 sec. (15.32 ticks)
Clique table members: 6380.
MIP emphasis: balance optimality and feasibility.
MIP search method: dynamic search.
Parallel mode: opportunistic, using up to 4 threads.
Root relaxation solution time = 0.50 sec. (473.64 ticks)

        Nodes                                         Cuts/
   Node  Left     Objective  IInf  Best Integer    Best Bound    ItCnt     Gap

      0     0     3353.0997   703                   3353.0997     2977         
*     0+    0                         3346.6254     3353.0997             0.19%

Flow cuts applied:  1
Gomory fractional cuts applied:  3

Root node processing (before b&c):
  Real time             =   13.45 sec. (5081.76 ticks)
Parallel b&c, 4 threads:
  Real time             =    0.00 sec. (0.00 ticks)
  Sync time (average)   =    0.00 sec.
  Wait time (average)   =    0.00 sec.
                          ------------
Total (root+branch&cut) =   13.45 sec. (5081.76 ticks)

Solution pool: 1 solution saved.

MIP - Integer optimal, tolerance (0.01/1e-06):  Objective =  3.3466254057e+03
Current MIP best bound =  3.3530996584e+03 (gap = 6.47425, 0.19%)
Solution time =   13.47 sec.  Iterations = 2980  Nodes = 0 (1)
Deterministic time = 5081.91 ticks  (377.30 ticks/sec)

CPLEX> Incumbent solution written to file 'C:\Users\llavi\Desktop\test919\logs\tmpjgm6qrtj.cplex.sol'.
CPLEX> Exporting results... 
